amplegs/networkflows/networkflowtime.out
ampl: reset; model networkflowtime.mod; data networkflowtime.dat; solve; display x;
CPLEX 12.8.0.0: optimal solution; objective 134
11 dual simplex iterations (0 in phase I)
x [*,*,1]
:   r   s   t   u   v   w    :=
r   6   0   4   .   .   .
s   .   0   0   0   .   .
t   .   .   0   0   0   .
u   .   .   .   0   0   0
v   .   .   .   .   0   0
w   .   .   .   .   .   0

 [*,*,2]
:   r   s   t   u   v   w    :=
r   0   4   2   .   .   .
s   .   0   0   0   .   .
t   .   .   0   0   4   .
u   .   .   .   0   0   0
v   .   .   .   .   0   0
w   .   .   .   .   .   0

 [*,*,3]
:   r   s   t   u   v   w    :=
r   0   0   0   .   .   .
s   .   0   0   4   .   .
t   .   .   0   0   2   .
u   .   .   .   0   0   0
v   .   .   .   .   1   3
w   .   .   .   .   .   0

 [*,*,4]
:   r   s   t   u   v   w    :=
r   0   0   0   .   .   .
s   .   0   0   0   .   .
t   .   .   0   0   0   .
u   .   .   .   0   0   4
v   .   .   .   .   0   3
w   .   .   .   .   .   3

 [*,*,5]
:   r   s   t   u   v   w    :=
r   0   0   0   .   .   .
s   .   0   0   0   .   .
t   .   .   0   0   0   .
u   .   .   .   0   0   0
v   .   .   .   .   0   0
w   .   .   .   .   .   0
;
